results_rootrelaxation/bin012_090_005.srr.sol
solution status: optimal solution found
objective value:                                   32
_var166_                                          0.4 	(obj:3)
_var680_                                          0.7 	(obj:1)
_var697_                                          0.1 	(obj:1)
_var708_                                          0.1 	(obj:2)
_var724_                                          0.3 	(obj:2)
_var731_                                          0.3 	(obj:5)
_var744_                                          0.6 	(obj:2)
_var745_                                          0.3 	(obj:3)
_var754_                                          0.1 	(obj:5)
_var759_                                          0.2 	(obj:3)
_var763_                                          0.2 	(obj:2)
_var765_                                          0.1 	(obj:4)
_var776_                                          0.1 	(obj:4)
_var791_                                          0.4 	(obj:2)
_var792_                           0.0999999999999999 	(obj:3)
_var809_                                          0.2 	(obj:5)
_var811_                                          0.3 	(obj:3)
_var819_                                          0.1 	(obj:4)
_var822_                                          0.1 	(obj:3)
_var830_                                          0.3 	(obj:4)
_var838_                           0.0999999999999999 	(obj:4)
_var839_                                          0.4 	(obj:3)
_var847_                                          0.4 	(obj:3)
_var849_                           0.0999999999999999 	(obj:5)
_var853_                                          0.1 	(obj:4)
_var856_                                          0.6 	(obj:2)
_var859_                                          0.2 	(obj:4)
_var860_                                          0.3 	(obj:3)
_var863_                                          0.1 	(obj:5)
_var865_                                          0.3 	(obj:4)
_var867_                                          0.3 	(obj:3)
_var868_                                          0.4 	(obj:3)
_var870_                                          0.3 	(obj:2)
_var871_                                          0.2 	(obj:1)
_var873_                                          0.2 	(obj:5)
_var874_                                          0.3 	(obj:3)
_var877_                                          0.2 	(obj:3)
_var878_                                          0.4 	(obj:3)
_var880_                                          0.4 	(obj:2)
_var890_                                          0.3 	(obj:4)
_var891_                                          0.1 	(obj:4)
_var892_                                          0.1 	(obj:3)
_var895_                                          0.2 	(obj:4)
