results_rootrelaxation/bin012_090_005.srr.log
SCIP version 8.0.3.5 [precision: 8 byte] [memory: block] [mode: optimized] [LP solver: Soplex 6.0.1.3] [GitHash: 438792519e]
Copyright (c) 2002-2023 Zuse Institute Berlin (ZIB)

External libraries: 
  Readline 8.1         GNU library for command line editing (gnu.org/s/readline)
  Soplex 6.0.1.3       Linear Programming Solver developed at Zuse Institute Berlin (soplex.zib.de) [GitHash: 713be0fe]
  CppAD 20180000.0     Algorithmic Differentiation of C++ algorithms developed by B. Bell (github.com/coin-or/CppAD)
  ZLIB 1.2.11          General purpose compression library by J. Gailly and M. Adler (zlib.net)
  bliss 0.77           Computing Graph Automorphism Groups by T. Junttila and P. Kaski (www.tcs.hut.fi/Software/bliss/)

user parameter file <scip.set> not found - using default parameters

srr/relaxation = TRUE

read problem <instances/bin012_090_005.srr>
============

Original problem: 
original problem has 0 variables (0 bin, 0 int, 0 impl, 0 cont) and 77 constraints

presolving:
presolving (1 rounds: 1 fast, 1 medium, 1 exhaustive):
 0 deleted vars, 0 deleted constraints, 0 added constraints, 0 tightened bounds, 0 added holes, 0 changed sides, 0 changed coefficients
 0 implications, 0 cliques
presolved problem has 0 variables (0 bin, 0 int, 0 impl, 0 cont) and 77 constraints
     77 constraints of type <linear>
Presolving Time: 0.00

 time | node  | left  |LP iter|LP it/n|mem/heur|mdpt |vars |cons |rows |cuts |sepa|confs|strbr|  dualbound   | primalbound  |  gap   | compl. 
  0.0s|     1 |     0 |     1 |     - |   710k |   0 |   1 |  77 |  77 |   0 |  0 |   0 |   0 |      --      |      --      |    Inf | unknown
r 0.0s|     1 |     0 |  1063 |     - |simplero|   0 | 658 |  77 |  77 |   0 |  0 |   0 |   0 |      --      | 4.691889e+01 |    Inf | unknown
r 0.0s|     1 |     0 |  1103 |     - |simplero|   0 | 669 |  77 |  77 |   0 |  0 |   0 |   0 |      --      | 4.546251e+01 |    Inf | unknown
r 0.1s|     1 |     0 |  1143 |     - |simplero|   0 | 680 |  77 |  77 |   0 |  0 |   0 |   0 |      --      | 4.448964e+01 |    Inf | unknown
r 0.1s|     1 |     0 |  1191 |     - |simplero|   0 | 691 |  77 |  77 |   0 |  0 |   0 |   0 |      --      | 4.117688e+01 |    Inf | unknown
r 0.1s|     1 |     0 |  1251 |     - |simplero|   0 | 702 |  77 |  77 |   0 |  0 |   0 |   0 |      --      | 3.969807e+01 |    Inf | unknown
r 0.1s|     1 |     0 |  1298 |     - |simplero|   0 | 713 |  77 |  77 |   0 |  0 |   0 |   0 |      --      | 3.826007e+01 |    Inf | unknown
r 0.1s|     1 |     0 |  1348 |     - |simplero|   0 | 724 |  77 |  77 |   0 |  0 |   0 |   0 |      --      | 3.724434e+01 |    Inf | unknown
r 0.1s|     1 |     0 |  1375 |     - |simplero|   0 | 735 |  77 |  77 |   0 |  0 |   0 |   0 |      --      | 3.688421e+01 |    Inf | unknown
r 0.1s|     1 |     0 |  1402 |     - |simplero|   0 | 735 |  77 |  77 |   0 |  0 |   0 |   0 |      --      | 3.674199e+01 |    Inf | unknown
r 0.1s|     1 |     0 |  1450 |     - |simplero|   0 | 746 |  77 |  77 |   0 |  0 |   0 |   0 |      --      | 3.602440e+01 |    Inf | unknown
r 0.1s|     1 |     0 |  1486 |     - |simplero|   0 | 746 |  77 |  77 |   0 |  0 |   0 |   0 |      --      | 3.589161e+01 |    Inf | unknown
r 0.1s|     1 |     0 |  1492 |     - |simplero|   0 | 746 |  77 |  77 |   0 |  0 |   0 |   0 |      --      | 3.588999e+01 |    Inf | unknown
r 0.1s|     1 |     0 |  1543 |     - |simplero|   0 | 757 |  77 |  77 |   0 |  0 |   0 |   0 |      --      | 3.529752e+01 |    Inf | unknown
r 0.1s|     1 |     0 |  1578 |     - |simplero|   0 | 768 |  77 |  77 |   0 |  0 |   0 |   0 |      --      | 3.496943e+01 |    Inf | unknown
 time | node  | left  |LP iter|LP it/n|mem/heur|mdpt |vars |cons |rows |cuts |sepa|confs|strbr|  dualbound   | primalbound  |  gap   | compl. 
r 0.1s|     1 |     0 |  1603 |     - |simplero|   0 | 768 |  77 |  77 |   0 |  0 |   0 |   0 |      --      | 3.481824e+01 |    Inf | unknown
r 0.1s|     1 |     0 |  1614 |     - |simplero|   0 | 768 |  77 |  77 |   0 |  0 |   0 |   0 |      --      | 3.479497e+01 |    Inf | unknown
r 0.1s|     1 |     0 |  1617 |     - |simplero|   0 | 768 |  77 |  77 |   0 |  0 |   0 |   0 |      --      | 3.479226e+01 |    Inf | unknown
r 0.1s|     1 |     0 |  1654 |     - |simplero|   0 | 779 |  77 |  77 |   0 |  0 |   0 |   0 |      --      | 3.395461e+01 |    Inf | unknown
r 0.1s|     1 |     0 |  1672 |     - |simplero|   0 | 779 |  77 |  77 |   0 |  0 |   0 |   0 |      --      | 3.389146e+01 |    Inf | unknown
r 0.1s|     1 |     0 |  1677 |     - |simplero|   0 | 779 |  77 |  77 |   0 |  0 |   0 |   0 |      --      | 3.387876e+01 |    Inf | unknown
r 0.1s|     1 |     0 |  1680 |     - |simplero|   0 | 779 |  77 |  77 |   0 |  0 |   0 |   0 |      --      | 3.387840e+01 |    Inf | unknown
r 0.1s|     1 |     0 |  1697 |     - |simplero|   0 | 790 |  77 |  77 |   0 |  0 |   0 |   0 |      --      | 3.378426e+01 |    Inf | unknown
r 0.1s|     1 |     0 |  1712 |     - |simplero|   0 | 790 |  77 |  77 |   0 |  0 |   0 |   0 |      --      | 3.375950e+01 |    Inf | unknown
r 0.1s|     1 |     0 |  1757 |     - |simplero|   0 | 801 |  77 |  77 |   0 |  0 |   0 |   0 |      --      | 3.331013e+01 |    Inf | unknown
r 0.1s|     1 |     0 |  1762 |     - |simplero|   0 | 801 |  77 |  77 |   0 |  0 |   0 |   0 |      --      | 3.329107e+01 |    Inf | unknown
r 0.1s|     1 |     0 |  1763 |     - |simplero|   0 | 801 |  77 |  77 |   0 |  0 |   0 |   0 |      --      | 3.329086e+01 |    Inf | unknown
r 0.1s|     1 |     0 |  1796 |     - |simplero|   0 | 812 |  77 |  77 |   0 |  0 |   0 |   0 |      --      | 3.306810e+01 |    Inf | unknown
r 0.1s|     1 |     0 |  1813 |     - |simplero|   0 | 812 |  77 |  77 |   0 |  0 |   0 |   0 |      --      | 3.301065e+01 |    Inf | unknown
r 0.1s|     1 |     0 |  1843 |     - |simplero|   0 | 823 |  77 |  77 |   0 |  0 |   0 |   0 |      --      | 3.267849e+01 |    Inf | unknown
 time | node  | left  |LP iter|LP it/n|mem/heur|mdpt |vars |cons |rows |cuts |sepa|confs|strbr|  dualbound   | primalbound  |  gap   | compl. 
r 0.1s|     1 |     0 |  1852 |     - |simplero|   0 | 823 |  77 |  77 |   0 |  0 |   0 |   0 |      --      | 3.266824e+01 |    Inf | unknown
r 0.1s|     1 |     0 |  1873 |     - |simplero|   0 | 834 |  77 |  77 |   0 |  0 |   0 |   0 |      --      | 3.250884e+01 |    Inf | unknown
  0.1s|     1 |     0 |  1884 |     - |  4117k |   0 | 834 |  77 |  77 |   0 |  0 |   0 |   0 |      --      | 3.250884e+01 |    Inf | unknown
r 0.1s|     1 |     0 |  1884 |     - |simplero|   0 | 834 |  77 |  77 |   0 |  0 |   0 |   0 |      --      | 3.247262e+01 |    Inf | unknown
r 0.1s|     1 |     0 |  1887 |     - |simplero|   0 | 834 |  77 |  77 |   0 |  0 |   0 |   0 |      --      | 3.246925e+01 |    Inf | unknown
r 0.1s|     1 |     0 |  1933 |     - |simplero|   0 | 845 |  77 |  77 |   0 |  0 |   0 |   0 |      --      | 3.230864e+01 |    Inf | unknown
r 0.1s|     1 |     0 |  1951 |     - |simplero|   0 | 856 |  77 |  77 |   0 |  0 |   0 |   0 |      --      | 3.225828e+01 |    Inf | unknown
r 0.1s|     1 |     0 |  1954 |     - |simplero|   0 | 856 |  77 |  77 |   0 |  0 |   0 |   0 |      --      | 3.225669e+01 |    Inf | unknown
r 0.1s|     1 |     0 |  1979 |     - |simplero|   0 | 866 |  77 |  77 |   0 |  0 |   0 |   0 |      --      | 3.220459e+01 |    Inf | unknown
r 0.1s|     1 |     0 |  1990 |     - |simplero|   0 | 866 |  77 |  77 |   0 |  0 |   0 |   0 |      --      | 3.219851e+01 |    Inf | unknown
r 0.1s|     1 |     0 |  1993 |     - |simplero|   0 | 866 |  77 |  77 |   0 |  0 |   0 |   0 |      --      | 3.219840e+01 |    Inf | unknown
r 0.1s|     1 |     0 |  2021 |     - |simplero|   0 | 875 |  77 |  77 |   0 |  0 |   0 |   0 |      --      | 3.213287e+01 |    Inf | unknown
r 0.1s|     1 |     0 |  2030 |     - |simplero|   0 | 875 |  77 |  77 |   0 |  0 |   0 |   0 |      --      | 3.213095e+01 |    Inf | unknown
r 0.1s|     1 |     0 |  2064 |     - |simplero|   0 | 885 |  77 |  77 |   0 |  0 |   0 |   0 |      --      | 3.203540e+01 |    Inf | unknown
r 0.1s|     1 |     0 |  2086 |     - |simplero|   0 | 894 |  77 |  77 |   0 |  0 |   0 |   0 |      --      | 3.201402e+01 |    Inf | unknown
 time | node  | left  |LP iter|LP it/n|mem/heur|mdpt |vars |cons |rows |cuts |sepa|confs|strbr|  dualbound   | primalbound  |  gap   | compl. 
r 0.1s|     1 |     0 |  2094 |     - |simplero|   0 | 894 |  77 |  77 |   0 |  0 |   0 |   0 |      --      | 3.201250e+01 |    Inf | unknown
r 0.1s|     1 |     0 |  2101 |     - |simplero|   0 | 901 |  77 |  77 |   0 |  0 |   0 |   0 |      --      | 3.200000e+01 |    Inf | unknown
  0.1s|     1 |     0 |  2101 |     - |  4476k |   0 | 901 |  77 |  77 |   0 |  0 |   0 |   0 | 3.200000e+01 | 3.200000e+01 |   0.00%| unknown
  0.1s|     1 |     0 |  2101 |     - |  4476k |   0 | 901 |  77 |  77 |   0 |  0 |   0 |   0 | 3.200000e+01 | 3.200000e+01 |   0.00%| unknown

SCIP Status        : problem is solved [optimal solution found]
Solving Time (sec) : 0.09
Solving Nodes      : 1
Primal Bound       : +3.20000000000000e+01 (45 solutions)
Dual Bound         : +3.20000000000000e+01
Gap                : 0.00 %

written transformed problem to file <results_rootrelaxation/bin012_090_005.srr.lp>
written transformed problem to file <results_rootrelaxation/bin012_090_005.srr.cip>

written solution information to file <results_rootrelaxation/bin012_090_005.srr.sol>



